p cnf 240 557
1 2 3 0
4 5 6 0
7 8 9 0
10 11 12 0
13 14 15 0
16 17 18 0
19 20 21 0
22 23 24 0
25 26 27 0
28 29 30 0
31 32 33 0
34 35 36 0
37 38 39 0
40 41 42 0
43 44 45 0
46 47 48 0
49 50 51 0
52 53 54 0
55 56 57 0
58 59 60 0
61 62 63 0
64 65 66 0
67 68 69 0
70 71 72 0
73 74 75 0
76 77 78 0
79 80 81 0
82 83 84 0
85 86 87 0
88 89 90 0
91 92 93 0
94 95 96 0
97 98 99 0
100 101 102 0
103 104 105 0
106 107 108 0
109 110 111 0
112 113 114 0
115 116 117 0
118 119 120 0
121 122 123 0
124 125 126 0
127 128 129 0
130 131 132 0
133 134 135 0
136 137 138 0
139 140 141 0
142 143 144 0
145 146 147 0
148 149 150 0
151 152 153 0
154 155 156 0
157 158 159 0
160 161 162 0
163 164 165 0
166 167 168 0
169 170 171 0
172 173 174 0
175 176 177 0
178 179 180 0
181 182 183 0
184 185 186 0
187 188 189 0
190 191 192 0
193 194 195 0
196 197 198 0
199 200 201 0
202 203 204 0
205 206 207 0
208 209 210 0
211 212 213 0
214 215 216 0
217 218 219 0
220 221 222 0
223 224 225 0
226 227 228 0
229 230 231 0
232 233 234 0
235 236 237 0
238 239 240 0
-1 -2 0
-1 -3 0
-2 -3 0
-4 -5 0
-4 -6 0
-5 -6 0
-7 -8 0
-7 -9 0
-8 -9 0
-10 -11 0
-10 -12 0
-11 -12 0
-13 -14 0
-13 -15 0
-14 -15 0
-16 -17 0
-16 -18 0
-17 -18 0
-19 -20 0
-19 -21 0
-20 -21 0
-22 -23 0
-22 -24 0
-23 -24 0
-25 -26 0
-25 -27 0
-26 -27 0
-28 -29 0
-28 -30 0
-29 -30 0
-31 -32 0
-31 -33 0
-32 -33 0
-34 -35 0
-34 -36 0
-35 -36 0
-37 -38 0
-37 -39 0
-38 -39 0
-40 -41 0
-40 -42 0
-41 -42 0
-43 -44 0
-43 -45 0
-44 -45 0
-46 -47 0
-46 -48 0
-47 -48 0
-49 -50 0
-49 -51 0
-50 -51 0
-52 -53 0
-52 -54 0
-53 -54 0
-55 -56 0
-55 -57 0
-56 -57 0
-58 -59 0
-58 -60 0
-59 -60 0
-61 -62 0
-61 -63 0
-62 -63 0
-64 -65 0
-64 -66 0
-65 -66 0
-67 -68 0
-67 -69 0
-68 -69 0
-70 -71 0
-70 -72 0
-71 -72 0
-73 -74 0
-73 -75 0
-74 -75 0
-76 -77 0
-76 -78 0
-77 -78 0
-79 -80 0
-79 -81 0
-80 -81 0
-82 -83 0
-82 -84 0
-83 -84 0
-85 -86 0
-85 -87 0
-86 -87 0
-88 -89 0
-88 -90 0
-89 -90 0
-91 -92 0
-91 -93 0
-92 -93 0
-94 -95 0
-94 -96 0
-95 -96 0
-97 -98 0
-97 -99 0
-98 -99 0
-100 -101 0
-100 -102 0
-101 -102 0
-103 -104 0
-103 -105 0
-104 -105 0
-106 -107 0
-106 -108 0
-107 -108 0
-109 -110 0
-109 -111 0
-110 -111 0
-112 -113 0
-112 -114 0
-113 -114 0
-115 -116 0
-115 -117 0
-116 -117 0
-118 -119 0
-118 -120 0
-119 -120 0
-121 -122 0
-121 -123 0
-122 -123 0
-124 -125 0
-124 -126 0
-125 -126 0
-127 -128 0
-127 -129 0
-128 -129 0
-130 -131 0
-130 -132 0
-131 -132 0
-133 -134 0
-133 -135 0
-134 -135 0
-136 -137 0
-136 -138 0
-137 -138 0
-139 -140 0
-139 -141 0
-140 -141 0
-142 -143 0
-142 -144 0
-143 -144 0
-145 -146 0
-145 -147 0
-146 -147 0
-148 -149 0
-148 -150 0
-149 -150 0
-151 -152 0
-151 -153 0
-152 -153 0
-154 -155 0
-154 -156 0
-155 -156 0
-157 -158 0
-157 -159 0
-158 -159 0
-160 -161 0
-160 -162 0
-161 -162 0
-163 -164 0
-163 -165 0
-164 -165 0
-166 -167 0
-166 -168 0
-167 -168 0
-169 -170 0
-169 -171 0
-170 -171 0
-172 -173 0
-172 -174 0
-173 -174 0
-175 -176 0
-175 -177 0
-176 -177 0
-178 -179 0
-178 -180 0
-179 -180 0
-181 -182 0
-181 -183 0
-182 -183 0
-184 -185 0
-184 -186 0
-185 -186 0
-187 -188 0
-187 -189 0
-188 -189 0
-190 -191 0
-190 -192 0
-191 -192 0
-193 -194 0
-193 -195 0
-194 -195 0
-196 -197 0
-196 -198 0
-197 -198 0
-199 -200 0
-199 -201 0
-200 -201 0
-202 -203 0
-202 -204 0
-203 -204 0
-205 -206 0
-205 -207 0
-206 -207 0
-208 -209 0
-208 -210 0
-209 -210 0
-211 -212 0
-211 -213 0
-212 -213 0
-214 -215 0
-214 -216 0
-215 -216 0
-217 -218 0
-217 -219 0
-218 -219 0
-220 -221 0
-220 -222 0
-221 -222 0
-223 -224 0
-223 -225 0
-224 -225 0
-226 -227 0
-226 -228 0
-227 -228 0
-229 -230 0
-229 -231 0
-230 -231 0
-232 -233 0
-232 -234 0
-233 -234 0
-235 -236 0
-235 -237 0
-236 -237 0
-238 -239 0
-238 -240 0
-239 -240 0
-1 -79 0
-4 -28 0
-7 -103 0
-10 -127 0
-13 -49 0
-16 -37 0
-19 -67 0
-22 -127 0
-25 -52 0
-28 -4 0
-31 -34 0
-34 -31 0
-37 -16 0
-40 -76 0
-43 -55 0
-46 -91 0
-49 -13 0
-52 -25 0
-55 -28 0
-58 -43 0
-61 -82 0
-64 -85 0
-67 -19 0
-70 -112 0
-73 -160 0
-76 -40 0
-79 -1 0
-82 -61 0
-85 -64 0
-88 -154 0
-91 -46 0
-94 -13 0
-97 -145 0
-100 -61 0
-103 -7 0
-106 -79 0
-109 -154 0
-112 -70 0
-115 -58 0
-118 -157 0
-121 -67 0
-124 -82 0
-127 -10 0
-130 -7 0
-133 -37 0
-136 -157 0
-139 -85 0
-142 -151 0
-145 -64 0
-148 -34 0
-151 -124 0
-154 -88 0
-157 -118 0
-160 -73 0
-163 -193 0
-166 -169 0
-169 -166 0
-172 -1 0
-175 -217 0
-178 -199 0
-181 -25 0
-184 -16 0
-187 -40 0
-190 -166 0
-193 -130 0
-196 -73 0
-199 -121 0
-202 -4 0
-205 -10 0
-208 -19 0
-211 -217 0
-214 -88 0
-217 -175 0
-220 -169 0
-223 -103 0
-226 -106 0
-229 -139 0
-232 -70 0
-235 -175 0
-2 -80 0
-5 -29 0
-8 -104 0
-11 -128 0
-14 -50 0
-17 -38 0
-20 -68 0
-23 -128 0
-26 -53 0
-29 -5 0
-32 -35 0
-35 -32 0
-38 -17 0
-41 -77 0
-44 -56 0
-47 -92 0
-50 -14 0
-53 -26 0
-56 -29 0
-59 -44 0
-62 -83 0
-65 -86 0
-68 -20 0
-71 -113 0
-74 -161 0
-77 -41 0
-80 -2 0
-83 -62 0
-86 -65 0
-89 -155 0
-92 -47 0
-95 -14 0
-98 -146 0
-101 -62 0
-104 -8 0
-107 -80 0
-110 -155 0
-113 -71 0
-116 -59 0
-119 -158 0
-122 -68 0
-125 -83 0
-128 -11 0
-131 -8 0
-134 -38 0
-137 -158 0
-140 -86 0
-143 -152 0
-146 -65 0
-149 -35 0
-152 -125 0
-155 -89 0
-158 -119 0
-161 -74 0
-164 -194 0
-167 -170 0
-170 -167 0
-173 -2 0
-176 -218 0
-179 -200 0
-182 -26 0
-185 -17 0
-188 -41 0
-191 -167 0
-194 -131 0
-197 -74 0
-200 -122 0
-203 -5 0
-206 -11 0
-209 -20 0
-212 -218 0
-215 -89 0
-218 -176 0
-221 -170 0
-224 -104 0
-227 -107 0
-230 -140 0
-233 -71 0
-236 -176 0
-3 -81 0
-6 -30 0
-9 -105 0
-12 -129 0
-15 -51 0
-18 -39 0
-21 -69 0
-24 -129 0
-27 -54 0
-30 -6 0
-33 -36 0
-36 -33 0
-39 -18 0
-42 -78 0
-45 -57 0
-48 -93 0
-51 -15 0
-54 -27 0
-57 -30 0
-60 -45 0
-63 -84 0
-66 -87 0
-69 -21 0
-72 -114 0
-75 -162 0
-78 -42 0
-81 -3 0
-84 -63 0
-87 -66 0
-90 -156 0
-93 -48 0
-96 -15 0
-99 -147 0
-102 -63 0
-105 -9 0
-108 -81 0
-111 -156 0
-114 -72 0
-117 -60 0
-120 -159 0
-123 -69 0
-126 -84 0
-129 -12 0
-132 -9 0
-135 -39 0
-138 -159 0
-141 -87 0
-144 -153 0
-147 -66 0
-150 -36 0
-153 -126 0
-156 -90 0
-159 -120 0
-162 -75 0
-165 -195 0
-168 -171 0
-171 -168 0
-174 -3 0
-177 -219 0
-180 -201 0
-183 -27 0
-186 -18 0
-189 -42 0
-192 -168 0
-195 -132 0
-198 -75 0
-201 -123 0
-204 -6 0
-207 -12 0
-210 -21 0
-213 -219 0
-216 -90 0
-219 -177 0
-222 -171 0
-225 -105 0
-228 -108 0
-231 -141 0
-234 -72 0
-237 -177 0
